AlCu_pvMn_pv/T0001.A2BC - (T0001.A2BC) -
   1.24482600000000     
     0.0000000000000000    2.4016485575188038    2.4016485575188038
     2.4016485575188038    0.0000000000000000    2.4016485575188038
     2.4016485575188038    2.4016485575188038    0.0000000000000000
   2   1   1
Direct
  0.7500000000000000  0.7500000000000000  0.7500000000000000
  0.2500000000000000  0.2500000000000000  0.2500000000000000
  0.0000000000000000  0.0000000000000000  0.0000000000000000
  0.5000000000000000  0.5000000000000000  0.5000000000000000
 
  0.00000000E+00  0.00000000E+00  0.00000000E+00
  0.00000000E+00  0.00000000E+00  0.00000000E+00
  0.00000000E+00  0.00000000E+00  0.00000000E+00
  0.00000000E+00  0.00000000E+00  0.00000000E+00
