# AFLOW::ABINIT BEGIN 
# AlCu_pvMn_pv/T0001.A2BC - (T0001.A2BC) -
acell   1.00000000000000   1.00000000000000   1.00000000000000  ANGST
rprim   0.00000000000000   2.98931423724738   2.98931423724738
        2.98931423724738   0.00000000000000   2.98931423724738
        2.98931423724738   2.98931423724738   0.00000000000000
natom 4
typat 1 1 2 3 
xred 
        0.75000000000000   0.75000000000000   0.75000000000000  # Al 
        0.25000000000000   0.25000000000000   0.25000000000000  # Al 
        0.00000000000000   0.00000000000000   0.00000000000000  # Cu 
        0.50000000000000   0.50000000000000   0.50000000000000  # Mn 
# AFLOW::ABINIT END 
