AlCu_pvMn_pv/T0001.A2BC - (T0001.A2BC) -
1.244826
   0.00000000000000   2.40139122837037   2.40139122837037
   2.40139122837037   0.00000000000000   2.40139122837037
   2.40139122837037   2.40139122837037   0.00000000000000
2 1 1 
Direct(4) [A2B1C1] 
   0.75000000000000   0.75000000000000   0.75000000000000  Al    
   0.25000000000000   0.25000000000000   0.25000000000000  Al    
   0.00000000000000   0.00000000000000   0.00000000000000  Cu    
   0.50000000000000   0.50000000000000   0.50000000000000  Mn    
