KPOINTS File, automatically generated by KPPRA - aflow with Kpoints=6912  [KPPRA=6000]
0
Monkhorst-Pack
12 12 12
0 0 0
