KPOINTS File, automatically generated by KPPRA - aflow with Kpoints=10976  [KPPRA=10000]
0
Monkhorst-Pack
14 14 14
0 0 0
