AlCu_pvMn_pv/T0001.A2BC - (T0001.A2BC) - AlCu2Mn [A2BC] (T0001.A2BC) & Fm(-3)m & #225 & cF16 & Navy  (htqc library) (use of T0001.proto)
-55.464600
   0.00000000000000   1.00000000000000   1.00000000000000
   1.00000000000000   0.00000000000000   1.00000000000000
   1.00000000000000   1.00000000000000   0.00000000000000
2 1 1 
Direct(4) [A2B1C1] 
   0.75000000000000   0.75000000000000   0.75000000000000  Al    
   0.25000000000000   0.25000000000000   0.25000000000000  Al    
   0.00000000000000   0.00000000000000   0.00000000000000  Cu_pv 
   0.50000000000000   0.50000000000000   0.50000000000000  Mn_pv 
